c nIsolatedPIs 10
c maxPI 6
p cnf 15 28
c gate 7 2 5 0
2 -7 0
5 -7 0
-2 -5 7 0
c gate 8 3 6 0
3 -8 0
6 -8 0
-3 -6 8 0
c gate 9 -7 -8 0
-7 -9 0
-8 -9 0
7 8 9 0
c gate 10 -2 -5 0
-2 -10 0
-5 -10 0
2 5 10 0
c gate 11 1 4 0
1 -11 0
4 -11 0
-1 -4 11 0
c gate 12 -3 -6 0
-3 -12 0
-6 -12 0
3 6 12 0
c gate 13 11 -12 0
11 -13 0
-12 -13 0
-11 12 13 0
c gate 14 -10 13 0
-10 -14 0
13 -14 0
10 -13 14 0
c gate 15 9 14 0
9 -15 0
14 -15 0
-9 -14 15 0
c PO
15 0
